p wcnf 131 197 10
5 -1 0
5 -2 0
5 -3 0
5 -4 0
5 -5 0
5 -6 0
5 -7 0
5 -8 0
5 -9 0
5 -10 0
5 -11 0
5 -12 0
5 -13 0
5 -14 0
5 -15 0
5 -16 0
5 -17 0
5 -18 0
5 -19 0
5 -20 0
5 -21 0
5 -22 0
5 -23 0
5 -24 0
5 -25 0
5 -26 0
5 -27 0
5 -28 0
5 -29 0
5 -30 0
5 -31 0
5 -32 0
5 -33 0
5 -34 0
5 -35 0
5 -36 0
5 -37 0
5 -38 0
5 -39 0
5 -40 0
5 -41 0
5 -42 0
5 -43 0
5 -44 0
5 -45 0
5 -46 0
5 -47 0
5 -48 0
5 -49 0
5 -50 0
5 -51 0
5 -52 0
5 -53 0
5 -54 0
5 -55 0
5 -56 0
5 -57 0
5 -58 0
5 -59 0
5 -60 0
5 -61 0
5 -62 0
5 -63 0
5 -64 0
5 -65 0
5 -66 0
5 -67 0
5 -68 0
5 -69 0
5 -70 0
5 -71 0
5 -72 0
5 -73 0
5 -74 0
5 -75 0
5 -76 0
5 -77 0
5 -78 0
5 -79 0
5 -80 0
5 -81 0
5 -82 0
5 -83 0
5 -84 0
5 -85 0
5 -86 0
5 -87 0
5 -88 0
5 -89 0
5 -90 0
5 -91 0
5 -92 0
5 -93 0
5 -94 0
5 -95 0
5 -96 0
5 -97 0
5 -98 0
5 -99 0
5 -100 0
5 -101 0
5 -102 0
5 -103 0
5 -104 0
5 -105 0
5 -106 0
5 -107 0
5 -108 0
5 -109 0
5 -110 0
5 -111 0
5 -112 0
5 -113 0
5 -114 0
5 -115 0
5 -116 0
5 -117 0
5 -118 0
5 -119 0
5 -120 0
5 -121 0
5 -122 0
5 -123 0
5 -124 0
5 -125 0
5 -126 0
5 -127 0
5 -128 0
5 -129 0
5 -130 0
10 1 2 3 4 5 6 7 8 9 10 11 12 13 14 15 16 17 18 19 20 21 22 23 24 25 26 27 28 29 30 31 32 33 34 35 36 37 38 39 40 41 42 43 44 45 46 47 48 49 50 51 52 53 54 55 56 57 58 59 60 61 62 63 64 65 66 67 68 69 70 71 72 73 74 75 76 77 78 79 80 81 82 83 84 85 86 87 88 89 90 91 92 93 94 95 96 97 98 99 100 101 102 103 104 105 106 107 108 109 110 111 112 113 114 115 116 117 118 119 120 121 122 123 124 125 126 127 128 129 130 0
10 131 0
x 10 1 66 67 73 74 75 76 77 78 81 82 84 87 88 89 92 93 95 96 103 105 108 109 110 111 113 114 117 119 121 124 125 128 129 131 0
x 10 2 66 67 68 69 70 72 73 76 78 81 82 84 85 86 89 90 91 92 93 95 96 97 101 102 103 104 108 116 117 121 122 125 128 130 131 0
x 10 3 69 71 72 75 80 82 83 84 85 86 88 91 93 94 95 96 97 98 100 104 105 107 108 111 112 113 114 118 122 124 127 128 130 131 0
x 10 4 66 69 71 72 76 78 79 81 82 83 84 89 91 95 96 99 101 102 103 104 105 106 107 110 114 117 118 119 122 124 125 127 128 131 0
x 10 5 66 68 69 70 71 74 75 76 77 78 79 82 86 88 89 92 97 100 102 103 104 105 106 108 112 114 117 122 123 124 130 131 0
x 10 6 66 70 72 75 76 78 80 81 86 91 92 93 94 100 103 106 107 110 111 112 113 117 118 120 121 128 129 131 0
x 10 7 66 68 69 70 72 73 74 76 77 78 80 81 82 84 86 88 90 92 95 96 97 98 99 101 103 107 108 110 111 112 113 114 117 118 124 125 126 127 129 131 0
x 10 8 66 68 72 73 77 79 88 89 91 92 94 99 100 101 103 107 108 109 111 113 114 115 120 121 124 125 126 127 131 0
x 10 9 66 67 68 70 72 75 76 77 81 83 86 91 92 94 96 99 102 105 106 108 112 113 115 117 118 121 122 123 124 128 130 131 0
x 10 10 67 72 76 77 80 81 85 87 88 89 92 96 97 98 99 100 102 104 106 108 112 113 119 121 122 123 124 126 127 128 131 0
x 10 11 70 72 73 74 75 80 81 82 83 86 87 89 91 92 93 94 96 99 102 103 105 106 110 111 112 113 117 119 121 122 123 124 125 126 130 131 0
x 10 12 66 69 71 73 76 77 82 84 85 87 88 89 94 95 96 97 98 99 102 103 105 107 110 111 112 116 120 123 126 128 129 131 0
x 10 13 67 69 71 75 77 80 82 83 85 86 87 89 90 91 96 98 99 100 106 108 111 114 116 118 120 122 123 124 125 127 130 131 0
x 10 14 67 69 70 71 75 77 78 79 80 81 83 86 88 91 93 98 99 102 105 106 110 113 114 117 118 121 122 123 127 128 129 130 131 0
x 10 15 66 67 68 73 74 77 82 84 87 88 91 93 94 95 96 101 102 105 107 108 110 111 112 115 117 120 121 124 125 127 128 131 0
x 10 16 67 68 72 74 75 76 77 78 80 81 83 87 88 89 90 93 94 96 97 98 100 101 102 103 105 107 110 112 113 114 115 116 117 122 126 127 129 130 131 0
x 10 17 66 67 70 71 72 74 76 80 81 83 84 85 88 89 92 96 99 100 101 105 108 112 114 115 116 119 126 127 128 130 131 0
x 10 18 68 70 73 75 76 77 78 80 82 84 85 86 87 88 89 91 92 93 94 96 99 110 113 114 115 117 119 121 124 126 127 128 129 130 131 0
x 10 19 67 70 71 75 77 78 79 81 87 91 93 95 96 99 101 103 105 106 107 109 111 112 114 116 117 119 120 121 124 131 0
x 10 20 66 70 71 72 79 80 81 83 86 89 91 92 93 94 96 97 100 102 103 104 105 107 108 109 110 115 118 120 121 122 124 125 126 127 130 131 0
x 10 21 66 67 68 70 71 72 73 74 80 81 82 83 84 85 86 87 88 89 90 91 94 96 97 102 106 107 113 117 118 119 120 121 122 124 125 126 131 0
x 10 22 67 68 71 73 75 76 79 80 82 86 87 89 90 96 97 98 102 103 104 107 110 113 114 116 121 122 124 125 128 129 131 0
x 10 23 66 68 69 71 72 73 78 84 88 89 90 92 93 98 99 100 101 104 106 107 109 110 111 116 117 119 121 122 126 127 130 131 0
x 10 24 66 68 69 70 71 76 77 81 85 86 87 89 98 102 104 105 109 112 114 115 119 120 122 125 130 131 0
x 10 25 66 68 70 73 74 75 79 80 84 85 86 87 88 89 90 91 94 95 96 97 98 99 100 103 104 105 110 111 113 117 121 123 124 125 126 127 128 130 131 0
x 10 26 67 68 70 72 73 74 75 77 78 79 80 81 82 83 84 85 87 89 92 93 99 100 102 103 106 111 115 116 118 119 120 122 123 124 125 126 129 130 131 0
x 10 27 66 69 70 72 73 74 75 78 79 84 87 90 92 94 95 96 97 98 100 101 110 111 113 118 121 122 123 124 125 127 129 130 131 0
x 10 28 66 69 71 75 76 78 79 82 84 85 86 87 88 89 93 94 97 101 103 105 107 108 109 111 112 113 120 123 124 125 131 0
x 10 29 66 67 68 70 71 72 73 74 76 78 81 83 84 86 87 88 89 90 91 93 94 97 100 102 104 105 108 109 110 111 112 114 117 119 120 121 122 131 0
x 10 30 71 72 74 75 77 82 84 86 87 88 95 96 97 100 101 105 110 111 114 117 118 119 120 122 123 127 130 131 0
x 10 31 67 68 69 70 72 74 75 78 83 89 90 91 92 93 96 97 99 100 102 103 104 106 107 108 111 113 115 116 120 122 128 129 131 0
x 10 32 67 69 70 73 75 76 77 79 80 82 85 86 88 90 92 95 96 97 98 101 103 104 105 107 108 110 113 114 115 116 117 122 125 126 127 128 129 131 0
x 10 33 66 68 71 78 79 81 84 88 89 90 91 92 93 94 95 96 99 103 104 105 108 111 112 113 115 116 117 119 120 121 123 124 127 128 130 131 0
x 10 34 69 70 72 73 74 77 78 79 81 84 86 90 91 96 97 103 104 106 108 111 113 115 119 123 124 125 127 130 131 0
x 10 35 66 70 71 73 74 76 78 81 83 86 93 94 95 96 99 104 106 107 109 110 111 112 113 114 115 116 117 120 121 122 123 124 125 126 127 129 131 0
x 10 36 66 68 69 71 76 77 78 79 81 82 84 88 89 91 92 94 95 99 109 110 111 115 116 118 120 122 124 126 128 129 130 131 0
x 10 37 68 71 74 75 76 78 81 83 85 86 89 90 91 94 97 98 99 100 103 104 105 106 107 108 109 111 112 115 121 122 123 126 127 128 129 130 131 0
x 10 38 66 68 70 74 75 76 79 81 82 83 84 86 87 88 96 97 99 101 102 105 107 109 111 112 113 115 118 120 121 124 126 131 0
x 10 39 68 69 72 73 75 77 81 82 83 92 93 94 96 97 98 99 100 102 103 105 106 109 110 114 115 116 123 124 126 127 128 129 130 131 0
x 10 40 74 76 77 79 80 81 82 83 87 89 90 91 92 94 97 100 111 112 114 115 122 123 128 131 0
x 10 41 68 72 74 76 77 79 82 83 86 89 92 94 98 100 101 105 107 108 112 114 115 118 119 121 123 124 125 126 127 128 130 131 0
x 10 42 68 74 76 77 79 80 82 84 89 91 93 94 97 99 100 103 105 107 108 110 111 113 114 115 117 119 121 122 124 126 128 130 131 0
x 10 43 67 68 72 77 78 82 83 86 89 99 100 101 103 105 106 107 108 109 110 111 112 114 115 116 118 119 120 121 123 126 127 129 131 0
x 10 44 66 69 72 74 75 76 82 85 86 90 91 94 95 96 98 100 102 104 105 107 108 109 111 114 115 116 118 119 123 124 125 129 130 131 0
x 10 45 67 69 70 71 74 75 80 81 84 86 87 89 94 95 104 105 106 108 109 110 113 115 117 120 123 124 125 126 127 131 0
x 10 46 69 74 75 76 78 79 80 82 85 87 88 89 90 91 92 95 98 99 101 103 109 115 116 117 118 123 124 125 127 128 130 131 0
x 10 47 66 68 71 72 73 77 80 81 84 85 86 87 88 89 93 95 97 98 101 103 104 106 108 109 111 112 114 116 117 119 120 122 123 124 126 128 131 0
x 10 48 66 69 70 71 72 73 78 79 82 83 84 85 86 90 91 92 95 97 98 99 100 101 104 105 106 107 108 112 113 117 118 119 120 125 128 129 131 0
x 10 49 69 70 79 81 84 87 88 89 92 93 94 95 96 98 99 107 108 110 111 112 115 116 117 118 122 123 124 125 126 128 129 131 0
x 10 50 66 69 70 72 74 75 76 77 80 81 82 84 86 87 88 91 93 94 95 96 97 98 99 100 101 102 104 106 107 113 114 115 117 119 121 123 126 127 131 0
x 10 51 66 68 69 70 71 75 76 78 79 83 85 86 87 88 90 92 97 100 102 104 106 107 110 113 114 115 116 118 120 121 124 129 130 131 0
x 10 52 67 68 71 72 75 76 78 79 80 82 86 87 89 92 93 97 100 102 103 105 108 109 111 112 113 115 116 117 118 119 121 123 125 126 127 128 130 131 0
x 10 53 66 68 70 71 72 73 74 75 76 77 80 81 82 83 84 85 89 90 91 93 98 99 100 101 102 103 104 105 106 107 111 112 116 117 118 120 122 123 124 125 126 128 130 131 0
x 10 54 69 74 75 76 77 78 79 81 82 84 86 89 90 91 92 94 97 98 100 101 107 108 111 112 117 119 121 122 124 125 126 129 130 131 0
x 10 55 66 68 69 70 73 75 76 77 80 82 83 92 96 98 99 100 101 102 104 105 106 107 108 111 114 115 116 118 120 122 124 125 126 127 128 131 0
x 10 56 66 67 68 73 74 77 78 79 85 88 89 90 92 93 98 99 101 102 103 104 110 111 114 117 119 123 124 127 128 130 131 0
x 10 57 70 71 72 73 74 77 80 82 83 85 88 90 93 96 98 99 101 103 105 106 107 108 109 110 111 112 114 116 118 119 121 125 126 127 129 131 0
x 10 58 66 67 72 76 77 82 84 86 88 92 94 95 96 98 99 104 106 107 109 110 112 114 116 117 120 122 124 127 129 130 131 0
x 10 59 66 68 69 70 71 72 77 79 80 84 85 87 89 90 93 96 101 103 104 105 106 107 108 110 112 113 114 117 119 120 122 130 131 0
x 10 60 69 71 74 75 78 80 81 82 83 85 90 94 95 96 99 101 102 106 109 110 111 112 115 118 119 121 122 129 131 0
x 10 61 66 68 69 70 71 72 73 74 75 76 78 79 80 81 82 84 86 87 88 89 90 91 94 97 99 100 104 105 106 107 109 112 113 114 116 117 124 126 127 128 130 131 0
x 10 62 67 69 71 72 73 75 77 80 81 85 86 87 88 92 93 95 96 97 98 103 105 106 107 111 112 114 116 117 118 123 125 126 127 128 131 0
x 10 63 67 68 73 74 78 80 81 82 85 86 87 88 89 90 92 93 97 98 99 101 104 106 107 108 110 111 115 120 121 122 123 127 131 0
x 10 64 67 68 69 73 74 75 78 81 82 83 84 91 93 94 99 105 106 107 110 112 118 119 120 127 128 130 131 0
x 10 65 70 73 75 77 78 80 83 85 90 91 92 94 95 97 99 104 107 108 109 113 114 115 117 118 119 124 126 128 131 0
